db/data/549315723219152826255954875248834311.z3.out
-------------------
2500.104929677
